decision_x1=[0,7];
decision_x2=[0,7];
decision_x3=[0,7];
decision_x4=[0,7];
decision_x5=[0,7];
decision_x6=[0,7];
decision_x7=[0,7];
decision_x8=[0,7];
decision_x9=[0,7];
decision_x10=[0,7];
decision_x11=[0,7];
decision_x12=[0,7];
decision_x13=[0,7];
decision_x14=[0,7];
decision_x15=[0,7];
decision_x16=[0,7];
decision_x17=[0,7];
decision_x18=[0,7];
random_y1=[0,7];
random_y2=[0,7];
random_y3=[0,7];
random_y4=[0,7];
random_y5=[0,7];
random_y6=[0,7];
random_y7=[0,7];
random_y8=[0,7];
constraint_x2_x1=[
0,0,1.6|
0,1,9.2|
0,2,7.1|
0,3,5.6|
0,4,3.8|
0,5,0.3|
0,6,6.5|
0,7,4.7|
1,0,0.72|
1,1,1.8|
1,2,4.3|
1,3,1.6|
1,4,4.4|
1,5,6.1|
1,6,3.1|
1,7,1.9|
2,0,6.9|
2,1,0.64|
2,2,7.1|
2,3,1.4|
2,4,7.3|
2,5,8.8|
2,6,6.9|
2,7,5.9|
3,0,9.3|
3,1,8.6|
3,2,4.9|
3,3,7.6|
3,4,5.9|
3,5,7.1|
3,6,8.7|
3,7,4.1|
4,0,1.1|
4,1,0.5|
4,2,1.6|
4,3,2.6|
4,4,6.9|
4,5,2.5|
4,6,4|
4,7,4.7|
5,0,1.3|
5,1,1.9|
5,2,5.3|
5,3,9.4|
5,4,7|
5,5,2.9|
5,6,1.9|
5,7,2.9|
6,0,8.3|
6,1,5.1|
6,2,2.6|
6,3,8.4|
6,4,3.8|
6,5,3.8|
6,6,3.7|
6,7,8.8|
7,0,3.6|
7,1,7.2|
7,2,0.042|
7,3,7.4|
7,4,8.7|
7,5,0.68|
7,6,7|
7,7,9.7|
];
constraint_x3_x2=[
0,0,4.2|
0,1,2.6|
0,2,1.3|
0,3,0.44|
0,4,9.5|
0,5,4.5|
0,6,3.2|
0,7,0.12|
1,0,5.6|
1,1,5.3|
1,2,1.2|
1,3,2.4|
1,4,5.6|
1,5,4|
1,6,1.3|
1,7,2.7|
2,0,4.4|
2,1,9.2|
2,2,1.2|
2,3,1.4|
2,4,1.3|
2,5,4.2|
2,6,7|
2,7,0.1|
3,0,8.7|
3,1,4.8|
3,2,4.6|
3,3,2.1|
3,4,2|
3,5,2.6|
3,6,6.7|
3,7,0.61|
4,0,2.4|
4,1,8.4|
4,2,0.42|
4,3,5.4|
4,4,4.8|
4,5,1.1|
4,6,0.93|
4,7,9.4|
5,0,8.1|
5,1,2.5|
5,2,5.9|
5,3,0.25|
5,4,7.1|
5,5,3.3|
5,6,8.2|
5,7,9.1|
6,0,0.53|
6,1,7.5|
6,2,8.5|
6,3,4.6|
6,4,7.2|
6,5,9.3|
6,6,1.1|
6,7,8.9|
7,0,6.3|
7,1,0.28|
7,2,7.7|
7,3,6.7|
7,4,10|
7,5,0.13|
7,6,4|
7,7,6|
];
constraint_x4_x3=[
0,0,9.5|
0,1,0.13|
0,2,3.7|
0,3,9.1|
0,4,9|
0,5,2.9|
0,6,5.6|
0,7,4.4|
1,0,1.1|
1,1,3.1|
1,2,6.4|
1,3,7|
1,4,9.6|
1,5,6.3|
1,6,8.8|
1,7,6.6|
2,0,2.8|
2,1,0.52|
2,2,5.3|
2,3,3.4|
2,4,3.4|
2,5,9.3|
2,6,9.4|
2,7,3|
3,0,5|
3,1,5.9|
3,2,4.2|
3,3,6|
3,4,1.2|
3,5,1.4|
3,6,1.8|
3,7,3.8|
4,0,2|
4,1,7.8|
4,2,9.1|
4,3,0.6|
4,4,4|
4,5,7.5|
4,6,7.5|
4,7,4.4|
5,0,3.5|
5,1,9.8|
5,2,9.2|
5,3,9.3|
5,4,0.78|
5,5,8.7|
5,6,3.4|
5,7,4.6|
6,0,4.6|
6,1,1.7|
6,2,1.3|
6,3,0.58|
6,4,5.9|
6,5,6.2|
6,6,3.5|
6,7,6.5|
7,0,6.7|
7,1,9.7|
7,2,9.2|
7,3,4.2|
7,4,5.1|
7,5,6.8|
7,6,1.9|
7,7,3|
];
constraint_x5_x1=[
0,0,0.56|
0,1,2.5|
0,2,9.5|
0,3,6.5|
0,4,8.9|
0,5,5.1|
0,6,5.8|
0,7,9.8|
1,0,0.15|
1,1,1.9|
1,2,7.3|
1,3,7.2|
1,4,4.2|
1,5,0.77|
1,6,1.9|
1,7,2.3|
2,0,2.3|
2,1,0.63|
2,2,6.4|
2,3,8.6|
2,4,1.4|
2,5,7.3|
2,6,1.6|
2,7,1.7|
3,0,3.9|
3,1,7.4|
3,2,1.9|
3,3,1.2|
3,4,9.7|
3,5,3.2|
3,6,2.9|
3,7,4.1|
4,0,0.55|
4,1,6.1|
4,2,8.9|
4,3,7.5|
4,4,0.4|
4,5,9.8|
4,6,6.9|
4,7,7.3|
5,0,1.1|
5,1,6.6|
5,2,7.1|
5,3,1.5|
5,4,4.5|
5,5,2.9|
5,6,5.3|
5,7,9|
6,0,7.3|
6,1,5|
6,2,2.3|
6,3,5.2|
6,4,3.4|
6,5,6.8|
6,6,1|
6,7,1.5|
7,0,6.9|
7,1,4.3|
7,2,8.1|
7,3,4.4|
7,4,7.1|
7,5,1.8|
7,6,1.3|
7,7,4|
];
constraint_x6_x2=[
0,0,8.2|
0,1,3.4|
0,2,2.3|
0,3,0.8|
0,4,2.8|
0,5,2.8|
0,6,6.5|
0,7,3.4|
1,0,2.1|
1,1,4.9|
1,2,1.2|
1,3,1.1|
1,4,5.6|
1,5,6|
1,6,5.3|
1,7,9.3|
2,0,5.6|
2,1,6.5|
2,2,5.9|
2,3,5.3|
2,4,2.5|
2,5,6.8|
2,6,7.6|
2,7,8.2|
3,0,1.9|
3,1,0.74|
3,2,9.7|
3,3,0.26|
3,4,3.8|
3,5,7.4|
3,6,4.6|
3,7,9|
4,0,3.3|
4,1,7.6|
4,2,9.5|
4,3,8.2|
4,4,7.2|
4,5,7.5|
4,6,1.1|
4,7,4.2|
5,0,8.7|
5,1,2.7|
5,2,6.4|
5,3,0.74|
5,4,1.2|
5,5,2.3|
5,6,9.9|
5,7,4.8|
6,0,2|
6,1,9.7|
6,2,8.7|
6,3,3.2|
6,4,3.7|
6,5,5.9|
6,6,3.6|
6,7,5.3|
7,0,2.9|
7,1,9.3|
7,2,9.4|
7,3,7.3|
7,4,1.5|
7,5,9|
7,6,2.3|
7,7,4.9|
];
constraint_x7_x3=[
0,0,4.9|
0,1,7.9|
0,2,0.26|
0,3,3.4|
0,4,4.2|
0,5,9.2|
0,6,5.8|
0,7,4.3|
1,0,6.8|
1,1,3.8|
1,2,6.9|
1,3,6.8|
1,4,1.7|
1,5,3.4|
1,6,2.5|
1,7,0.1|
2,0,5.2|
2,1,9|
2,2,7.2|
2,3,2.1|
2,4,2.7|
2,5,8.7|
2,6,1.5|
2,7,1.4|
3,0,5.5|
3,1,4.7|
3,2,8.5|
3,3,8.1|
3,4,4.4|
3,5,7.7|
3,6,7.8|
3,7,3.2|
4,0,7|
4,1,4|
4,2,1.8|
4,3,0.41|
4,4,2.5|
4,5,1.4|
4,6,0.42|
4,7,9.7|
5,0,5.7|
5,1,0.42|
5,2,5.4|
5,3,8.9|
5,4,5.8|
5,5,1.9|
5,6,7.8|
5,7,6.9|
6,0,2.2|
6,1,8.8|
6,2,9.6|
6,3,3.9|
6,4,4.3|
6,5,4.5|
6,6,4.1|
6,7,7.9|
7,0,5.9|
7,1,6.2|
7,2,5.3|
7,3,5.1|
7,4,3.8|
7,5,2.3|
7,6,4.3|
7,7,3.3|
];
constraint_x8_x4=[
0,0,9.5|
0,1,7.2|
0,2,3.9|
0,3,4.8|
0,4,3.4|
0,5,8.8|
0,6,2.1|
0,7,4.4|
1,0,8.5|
1,1,0.86|
1,2,1.1|
1,3,0.89|
1,4,10|
1,5,5|
1,6,4.2|
1,7,6|
2,0,3.2|
2,1,6.6|
2,2,1.3|
2,3,8.3|
2,4,7.9|
2,5,8.1|
2,6,5.8|
2,7,2.4|
3,0,6.5|
3,1,7.7|
3,2,4.2|
3,3,8.1|
3,4,1.9|
3,5,5.4|
3,6,9.7|
3,7,6.5|
4,0,1.6|
4,1,8.6|
4,2,9.2|
4,3,7.7|
4,4,1.8|
4,5,0.22|
4,6,5.8|
4,7,3.7|
5,0,8|
5,1,3.1|
5,2,6.3|
5,3,9.5|
5,4,6.6|
5,5,9.2|
5,6,9.4|
5,7,7.1|
6,0,3.8|
6,1,7.1|
6,2,9.6|
6,3,7|
6,4,4.1|
6,5,8.2|
6,6,4.6|
6,7,7.4|
7,0,7.5|
7,1,0.32|
7,2,0.00026|
7,3,2|
7,4,6.8|
7,5,5.5|
7,6,4.4|
7,7,4.8|
];
constraint_x9_x5=[
0,0,1.7|
0,1,1.1|
0,2,6.3|
0,3,6.9|
0,4,4|
0,5,2.3|
0,6,8.4|
0,7,6.3|
1,0,0.35|
1,1,9.5|
1,2,8.5|
1,3,5.3|
1,4,1.3|
1,5,7.4|
1,6,5.7|
1,7,4.1|
2,0,0.22|
2,1,6.6|
2,2,6.9|
2,3,9.8|
2,4,2.9|
2,5,2.3|
2,6,6.6|
2,7,2.8|
3,0,2.5|
3,1,0.58|
3,2,9.2|
3,3,3.5|
3,4,3.6|
3,5,5.2|
3,6,7.6|
3,7,8.5|
4,0,1.9|
4,1,1.8|
4,2,4.1|
4,3,0.15|
4,4,2.4|
4,5,9.5|
4,6,0.033|
4,7,1.8|
5,0,5.9|
5,1,5.7|
5,2,4.2|
5,3,5.2|
5,4,8.6|
5,5,6|
5,6,4.9|
5,7,1.6|
6,0,1.6|
6,1,4.9|
6,2,1.6|
6,3,4.6|
6,4,7.1|
6,5,7.4|
6,6,5.4|
6,7,6.4|
7,0,2.4|
7,1,4.3|
7,2,5.4|
7,3,1.5|
7,4,4.6|
7,5,1.6|
7,6,8.7|
7,7,0.77|
];
constraint_x10_x6=[
0,0,2.1|
0,1,6.7|
0,2,2.1|
0,3,1.1|
0,4,1.8|
0,5,6.4|
0,6,1.4|
0,7,0.99|
1,0,1.5|
1,1,0.97|
1,2,1.4|
1,3,0.91|
1,4,9.8|
1,5,7.5|
1,6,7.4|
1,7,4|
2,0,5.2|
2,1,6|
2,2,2.7|
2,3,4.1|
2,4,6.3|
2,5,3.7|
2,6,1.8|
2,7,9.9|
3,0,4.5|
3,1,9.9|
3,2,3.5|
3,3,9.1|
3,4,2.6|
3,5,7.1|
3,6,0.35|
3,7,9|
4,0,1.4|
4,1,1.6|
4,2,0.92|
4,3,3.4|
4,4,1|
4,5,7.8|
4,6,1.2|
4,7,3.3|
5,0,1.2|
5,1,2.6|
5,2,7.3|
5,3,1.6|
5,4,5.7|
5,5,9.3|
5,6,5.7|
5,7,6.2|
6,0,4.7|
6,1,9.7|
6,2,4.4|
6,3,7.5|
6,4,2.8|
6,5,3.2|
6,6,7.2|
6,7,5.2|
7,0,6.8|
7,1,5.4|
7,2,3|
7,3,9.3|
7,4,10|
7,5,9.3|
7,6,2.6|
7,7,0.99|
];
constraint_x11_x7=[
0,0,2.7|
0,1,7.2|
0,2,4.3|
0,3,3.7|
0,4,8.4|
0,5,3.9|
0,6,9.7|
0,7,7.3|
1,0,7.4|
1,1,5.9|
1,2,9.3|
1,3,8.5|
1,4,1.8|
1,5,5.8|
1,6,6.3|
1,7,6.4|
2,0,0.99|
2,1,0.075|
2,2,5.1|
2,3,3.9|
2,4,3.3|
2,5,9|
2,6,8.9|
2,7,2.7|
3,0,0.24|
3,1,2.4|
3,2,4.4|
3,3,8.1|
3,4,7.8|
3,5,1.6|
3,6,0.38|
3,7,3|
4,0,2.3|
4,1,6|
4,2,3.6|
4,3,2.3|
4,4,6.5|
4,5,0.77|
4,6,0.87|
4,7,2.6|
5,0,3|
5,1,2.4|
5,2,9.6|
5,3,6.4|
5,4,0.34|
5,5,6.1|
5,6,3.8|
5,7,4.2|
6,0,1.8|
6,1,0.89|
6,2,0.25|
6,3,4.6|
6,4,6.2|
6,5,8.3|
6,6,9.8|
6,7,7.8|
7,0,6.3|
7,1,4.9|
7,2,8.8|
7,3,2.3|
7,4,4.5|
7,5,5.6|
7,6,8.7|
7,7,3.1|
];
constraint_x12_x8=[
0,0,6.4|
0,1,5.5|
0,2,0.31|
0,3,0.83|
0,4,3.3|
0,5,7|
0,6,2.1|
0,7,7.7|
1,0,5.8|
1,1,7.2|
1,2,4.3|
1,3,4.7|
1,4,1.8|
1,5,6.4|
1,6,2.6|
1,7,2|
2,0,1.8|
2,1,7.5|
2,2,3.5|
2,3,3.1|
2,4,0.37|
2,5,4.9|
2,6,6.1|
2,7,6.3|
3,0,1.7|
3,1,3.8|
3,2,3|
3,3,6.5|
3,4,6.2|
3,5,5|
3,6,5.6|
3,7,6.7|
4,0,3.3|
4,1,2.4|
4,2,8.6|
4,3,7.6|
4,4,2.4|
4,5,9.5|
4,6,9.1|
4,7,7.1|
5,0,4.5|
5,1,9.5|
5,2,8.4|
5,3,7.7|
5,4,8.5|
5,5,0.84|
5,6,8.1|
5,7,8|
6,0,2.5|
6,1,7.1|
6,2,0.93|
6,3,9.4|
6,4,4.7|
6,5,9.7|
6,6,7.6|
6,7,3.1|
7,0,2.9|
7,1,8.7|
7,2,9.4|
7,3,5.4|
7,4,9.5|
7,5,7.7|
7,6,7.9|
7,7,4.8|
];
constraint_x13_x9=[
0,0,3.2|
0,1,2.3|
0,2,9|
0,3,8.9|
0,4,5.6|
0,5,0.26|
0,6,8.4|
0,7,0.27|
1,0,0.38|
1,1,9.3|
1,2,1.7|
1,3,9.3|
1,4,1.2|
1,5,7.2|
1,6,6.2|
1,7,3|
2,0,6.3|
2,1,2|
2,2,7.8|
2,3,7|
2,4,4.8|
2,5,9.2|
2,6,6.5|
2,7,5.2|
3,0,3.5|
3,1,1.1|
3,2,6.9|
3,3,8.1|
3,4,0.92|
3,5,1.8|
3,6,4.3|
3,7,0.11|
4,0,2.3|
4,1,4.5|
4,2,4.8|
4,3,3.4|
4,4,9.7|
4,5,5.9|
4,6,9.7|
4,7,7.9|
5,0,1.2|
5,1,1.4|
5,2,0.02|
5,3,9.8|
5,4,4|
5,5,5.8|
5,6,3|
5,7,9.4|
6,0,0.45|
6,1,9.2|
6,2,1.3|
6,3,1.2|
6,4,0.89|
6,5,8.6|
6,6,8.3|
6,7,2.5|
7,0,2.2|
7,1,5.9|
7,2,0.089|
7,3,2.6|
7,4,5.3|
7,5,3.5|
7,6,2.1|
7,7,8.1|
];
constraint_x14_x10=[
0,0,5|
0,1,9|
0,2,8.6|
0,3,6.4|
0,4,5.4|
0,5,5.6|
0,6,6.2|
0,7,4.4|
1,0,8.5|
1,1,6.9|
1,2,2.3|
1,3,5.5|
1,4,8.7|
1,5,5.1|
1,6,4.8|
1,7,5.6|
2,0,4.2|
2,1,2.9|
2,2,8.6|
2,3,2.3|
2,4,9.3|
2,5,5.8|
2,6,5.3|
2,7,7.3|
3,0,5|
3,1,10|
3,2,7.4|
3,3,7.6|
3,4,0.51|
3,5,0.072|
3,6,5.9|
3,7,1.4|
4,0,2.4|
4,1,3.3|
4,2,3.8|
4,3,2.8|
4,4,2.3|
4,5,2.6|
4,6,3.3|
4,7,8.2|
5,0,7.6|
5,1,1|
5,2,9.8|
5,3,3.9|
5,4,1.9|
5,5,2.2|
5,6,5.5|
5,7,7.8|
6,0,2.6|
6,1,3|
6,2,3.3|
6,3,7.7|
6,4,3.8|
6,5,7.9|
6,6,2.7|
6,7,4.8|
7,0,5.7|
7,1,6.6|
7,2,2.9|
7,3,4.5|
7,4,10|
7,5,6|
7,6,7.4|
7,7,1.4|
];
constraint_x15_x11=[
0,0,4.8|
0,1,5.7|
0,2,0.75|
0,3,8.2|
0,4,7.7|
0,5,6|
0,6,2.8|
0,7,1.1|
1,0,8.4|
1,1,7.5|
1,2,0.64|
1,3,4.4|
1,4,3.5|
1,5,1.7|
1,6,7.7|
1,7,5.9|
2,0,3.7|
2,1,7.4|
2,2,5.3|
2,3,3.6|
2,4,7.4|
2,5,8.8|
2,6,7.4|
2,7,2.2|
3,0,6.8|
3,1,5.1|
3,2,5.2|
3,3,3.8|
3,4,2.9|
3,5,5.5|
3,6,8|
3,7,7.3|
4,0,6.3|
4,1,1.5|
4,2,0.99|
4,3,9.1|
4,4,1|
4,5,5|
4,6,8.1|
4,7,5.7|
5,0,8.2|
5,1,3.1|
5,2,8|
5,3,5.1|
5,4,0.85|
5,5,2.2|
5,6,6.3|
5,7,4|
6,0,6.3|
6,1,6.8|
6,2,2.5|
6,3,3.5|
6,4,7.5|
6,5,6.8|
6,6,1.8|
6,7,10|
7,0,5.8|
7,1,4.2|
7,2,1.8|
7,3,1.7|
7,4,6.5|
7,5,5.7|
7,6,8.7|
7,7,0.89|
];
constraint_x16_x12=[
0,0,1.5|
0,1,1.7|
0,2,7|
0,3,1.1|
0,4,3.9|
0,5,2.7|
0,6,7.1|
0,7,8.6|
1,0,8.5|
1,1,9.2|
1,2,6.3|
1,3,4.8|
1,4,0.73|
1,5,6.8|
1,6,9.7|
1,7,1.1|
2,0,4.4|
2,1,9.4|
2,2,5.4|
2,3,6.2|
2,4,0.15|
2,5,0.085|
2,6,5.3|
2,7,10|
3,0,4.7|
3,1,3.4|
3,2,6.6|
3,3,9.7|
3,4,2.4|
3,5,8.1|
3,6,0.54|
3,7,7.3|
4,0,4.4|
4,1,8.9|
4,2,8.1|
4,3,2.2|
4,4,4.1|
4,5,5.2|
4,6,1.1|
4,7,8|
5,0,5.4|
5,1,9.9|
5,2,6.5|
5,3,2.7|
5,4,3.5|
5,5,3.4|
5,6,0.51|
5,7,8|
6,0,2.4|
6,1,5.3|
6,2,5.1|
6,3,8.1|
6,4,6.7|
6,5,5.1|
6,6,1.8|
6,7,8.5|
7,0,8.3|
7,1,9.3|
7,2,8.2|
7,3,1.3|
7,4,4|
7,5,7.7|
7,6,8.5|
7,7,0.78|
];
constraint_x17_x13=[
0,0,0.99|
0,1,5.5|
0,2,8.1|
0,3,4.2|
0,4,6.8|
0,5,6.6|
0,6,9.6|
0,7,4|
1,0,7.2|
1,1,4.9|
1,2,4.8|
1,3,9.9|
1,4,8.4|
1,5,1.5|
1,6,10|
1,7,0.055|
2,0,8.6|
2,1,0.42|
2,2,8.7|
2,3,5.5|
2,4,4|
2,5,1.1|
2,6,7.7|
2,7,5.7|
3,0,4.5|
3,1,4.2|
3,2,3.2|
3,3,4|
3,4,3.1|
3,5,2.6|
3,6,8.4|
3,7,8.8|
4,0,4.7|
4,1,5.8|
4,2,2|
4,3,3|
4,4,7.3|
4,5,5.3|
4,6,0.078|
4,7,4.4|
5,0,7.1|
5,1,8.8|
5,2,2.2|
5,3,3|
5,4,5|
5,5,4.3|
5,6,4.7|
5,7,2.6|
6,0,3.5|
6,1,2.4|
6,2,5.4|
6,3,5.6|
6,4,2.6|
6,5,8.3|
6,6,9.9|
6,7,1.9|
7,0,3.5|
7,1,3.5|
7,2,5.1|
7,3,3.2|
7,4,6.8|
7,5,4.1|
7,6,1.1|
7,7,3.1|
];
constraint_x18_x14=[
0,0,8.3|
0,1,4.2|
0,2,7.3|
0,3,4|
0,4,8.2|
0,5,6.5|
0,6,3|
0,7,8.5|
1,0,1.9|
1,1,1.2|
1,2,6.8|
1,3,2.5|
1,4,9.3|
1,5,4.7|
1,6,2.9|
1,7,5.1|
2,0,7.2|
2,1,9.3|
2,2,9.7|
2,3,1.9|
2,4,4.2|
2,5,6.1|
2,6,4|
2,7,0.61|
3,0,8.8|
3,1,5.5|
3,2,6.5|
3,3,6|
3,4,0.63|
3,5,4.8|
3,6,0.2|
3,7,9.2|
4,0,0.23|
4,1,5.2|
4,2,8.1|
4,3,8.1|
4,4,4.1|
4,5,0.68|
4,6,4.2|
4,7,7.9|
5,0,4|
5,1,0.87|
5,2,6.2|
5,3,3.9|
5,4,6.7|
5,5,6.9|
5,6,8.4|
5,7,8.9|
6,0,2.1|
6,1,9.3|
6,2,5|
6,3,4|
6,4,7.2|
6,5,0.59|
6,6,9.5|
6,7,0.43|
7,0,9.4|
7,1,4|
7,2,0.4|
7,3,8.5|
7,4,6.5|
7,5,5.8|
7,6,7.9|
7,7,7.1|
];
constraint_x1_y1=[
0,0,9.1|
0,1,8.2|
0,2,8.3|
0,3,7.8|
0,4,2.9|
0,5,2.3|
0,6,8.3|
0,7,1.5|
1,0,4.1|
1,1,3.8|
1,2,3.3|
1,3,6.6|
1,4,0.14|
1,5,8.2|
1,6,6.4|
1,7,9.5|
2,0,7.8|
2,1,2|
2,2,5.6|
2,3,5.5|
2,4,6.5|
2,5,1.5|
2,6,1.2|
2,7,0.52|
3,0,7|
3,1,0.38|
3,2,2.7|
3,3,8.1|
3,4,9.1|
3,5,5.9|
3,6,8.9|
3,7,0.97|
4,0,6.1|
4,1,2.7|
4,2,4.7|
4,3,8|
4,4,0.88|
4,5,4|
4,6,4.8|
4,7,3.2|
5,0,9.1|
5,1,6.5|
5,2,4.3|
5,3,5.5|
5,4,9.1|
5,5,6.2|
5,6,8.1|
5,7,6.7|
6,0,1.2|
6,1,9.7|
6,2,9.8|
6,3,4.7|
6,4,9.5|
6,5,1.1|
6,6,5.9|
6,7,6.3|
7,0,6.9|
7,1,0.7|
7,2,5.5|
7,3,8|
7,4,1.9|
7,5,2.9|
7,6,6.9|
7,7,3.7|
];
constraint_x2_y2=[
0,0,9.6|
0,1,4.2|
0,2,1.2|
0,3,4.7|
0,4,6.1|
0,5,2.8|
0,6,3|
0,7,2.2|
1,0,6.6|
1,1,4.3|
1,2,6.4|
1,3,0.065|
1,4,7.9|
1,5,5.4|
1,6,9|
1,7,4.9|
2,0,7.7|
2,1,5.4|
2,2,9.7|
2,3,9|
2,4,8.4|
2,5,0.62|
2,6,4.4|
2,7,0.76|
3,0,0.77|
3,1,1.8|
3,2,6|
3,3,4.3|
3,4,1.6|
3,5,1.8|
3,6,4.4|
3,7,8.1|
4,0,6.7|
4,1,4.4|
4,2,3.7|
4,3,10|
4,4,4.8|
4,5,8.9|
4,6,4.9|
4,7,2.9|
5,0,2.7|
5,1,8.5|
5,2,2.9|
5,3,8.4|
5,4,5.2|
5,5,1.4|
5,6,6.5|
5,7,8|
6,0,1.1|
6,1,5.8|
6,2,2.5|
6,3,0.18|
6,4,4.7|
6,5,8.1|
6,6,2.5|
6,7,0.29|
7,0,5.8|
7,1,4.4|
7,2,1.6|
7,3,0.33|
7,4,9.8|
7,5,0.73|
7,6,2.1|
7,7,9.7|
];
constraint_x3_y3=[
0,0,4.9|
0,1,6.2|
0,2,6.4|
0,3,3.3|
0,4,3.4|
0,5,2|
0,6,4.2|
0,7,9.8|
1,0,2.8|
1,1,7.5|
1,2,1|
1,3,6|
1,4,4.4|
1,5,1.5|
1,6,0.83|
1,7,2.4|
2,0,8|
2,1,8.3|
2,2,6.7|
2,3,2.3|
2,4,3.5|
2,5,2.7|
2,6,8.2|
2,7,2.3|
3,0,0.78|
3,1,3.2|
3,2,6.2|
3,3,2.9|
3,4,0.7|
3,5,4.8|
3,6,0.44|
3,7,8.3|
4,0,8.2|
4,1,4.8|
4,2,7.5|
4,3,7.2|
4,4,3.5|
4,5,6.7|
4,6,7.4|
4,7,9|
5,0,9.7|
5,1,3.1|
5,2,7.2|
5,3,5.9|
5,4,9.9|
5,5,0.3|
5,6,6.9|
5,7,6.9|
6,0,0.3|
6,1,7|
6,2,1.1|
6,3,3.6|
6,4,5.6|
6,5,1.8|
6,6,4.3|
6,7,3.2|
7,0,0.55|
7,1,1.4|
7,2,9.4|
7,3,5.6|
7,4,8.7|
7,5,2.1|
7,6,8.3|
7,7,7.9|
];
constraint_x4_y4=[
0,0,5.9|
0,1,3.4|
0,2,7.8|
0,3,1.7|
0,4,9.1|
0,5,2.3|
0,6,4.9|
0,7,6.6|
1,0,7.7|
1,1,2.1|
1,2,7.6|
1,3,8.2|
1,4,8.8|
1,5,0.33|
1,6,7.6|
1,7,10|
2,0,5.7|
2,1,7|
2,2,6.7|
2,3,9.8|
2,4,8.8|
2,5,7|
2,6,7|
2,7,1.8|
3,0,8.5|
3,1,3.5|
3,2,1.6|
3,3,3|
3,4,1.9|
3,5,0.44|
3,6,6.5|
3,7,7.2|
4,0,8.2|
4,1,8.5|
4,2,1.3|
4,3,2.4|
4,4,2.6|
4,5,3|
4,6,8.8|
4,7,4.9|
5,0,2.4|
5,1,9.8|
5,2,6.9|
5,3,8.8|
5,4,9.1|
5,5,5|
5,6,0.76|
5,7,5.6|
6,0,2.5|
6,1,0.74|
6,2,0.88|
6,3,3.7|
6,4,9.2|
6,5,8.4|
6,6,1.9|
6,7,9.1|
7,0,7.2|
7,1,1.4|
7,2,5|
7,3,8.7|
7,4,8|
7,5,7.2|
7,6,9.7|
7,7,9.5|
];
constraint_x5_y5=[
0,0,8.3|
0,1,2.8|
0,2,2.3|
0,3,3.9|
0,4,0.58|
0,5,7.4|
0,6,1|
0,7,9.4|
1,0,5.4|
1,1,9.5|
1,2,8.6|
1,3,5.6|
1,4,1.6|
1,5,5.2|
1,6,1.8|
1,7,2.4|
2,0,2|
2,1,5.1|
2,2,9.3|
2,3,9|
2,4,2.8|
2,5,7.7|
2,6,7.2|
2,7,3.2|
3,0,9.2|
3,1,2|
3,2,9.4|
3,3,0.26|
3,4,8.8|
3,5,9.5|
3,6,5.4|
3,7,7.4|
4,0,8.4|
4,1,4.7|
4,2,0.41|
4,3,7.2|
4,4,3.2|
4,5,6.1|
4,6,9.7|
4,7,4.9|
5,0,9.5|
5,1,3.3|
5,2,8.5|
5,3,2.7|
5,4,8.3|
5,5,7.5|
5,6,4.4|
5,7,0.082|
6,0,6.1|
6,1,7.3|
6,2,9.6|
6,3,9.4|
6,4,2.3|
6,5,0.59|
6,6,8.2|
6,7,7.2|
7,0,8.1|
7,1,1.7|
7,2,6.2|
7,3,0.49|
7,4,3.2|
7,5,1.5|
7,6,4.5|
7,7,7.9|
];
constraint_x6_y6=[
0,0,9.5|
0,1,2.3|
0,2,9.2|
0,3,9|
0,4,6.8|
0,5,4.8|
0,6,6|
0,7,3.4|
1,0,2.2|
1,1,2.8|
1,2,5.8|
1,3,0.095|
1,4,8.8|
1,5,6.3|
1,6,6.3|
1,7,0.29|
2,0,7.7|
2,1,2.9|
2,2,7.2|
2,3,6.7|
2,4,9.1|
2,5,7.5|
2,6,9|
2,7,7.3|
3,0,4.5|
3,1,5.5|
3,2,1.8|
3,3,7.9|
3,4,3.5|
3,5,0.11|
3,6,7.9|
3,7,3.5|
4,0,6.3|
4,1,8.9|
4,2,10|
4,3,5.8|
4,4,1.4|
4,5,1.5|
4,6,1.7|
4,7,9.6|
5,0,7|
5,1,5.1|
5,2,0.61|
5,3,7.9|
5,4,2.8|
5,5,3.8|
5,6,4.5|
5,7,0.74|
6,0,3.5|
6,1,7.4|
6,2,2.1|
6,3,9.8|
6,4,6.8|
6,5,0.86|
6,6,5.2|
6,7,9.2|
7,0,9|
7,1,6.7|
7,2,5.8|
7,3,2.8|
7,4,9.7|
7,5,0.75|
7,6,3.6|
7,7,2.8|
];
constraint_x7_y7=[
0,0,5.3|
0,1,6.2|
0,2,0.29|
0,3,6.2|
0,4,2.8|
0,5,3.4|
0,6,2.2|
0,7,7.7|
1,0,2.5|
1,1,1.4|
1,2,7.2|
1,3,9.2|
1,4,1.8|
1,5,6|
1,6,5.8|
1,7,1.4|
2,0,0.12|
2,1,4.9|
2,2,8|
2,3,2.2|
2,4,8.8|
2,5,5.9|
2,6,0.65|
2,7,3.9|
3,0,7.3|
3,1,6.9|
3,2,2.6|
3,3,9.1|
3,4,7.1|
3,5,5.8|
3,6,5.6|
3,7,2.3|
4,0,7.2|
4,1,5.9|
4,2,5.6|
4,3,0.23|
4,4,8.3|
4,5,7.2|
4,6,7.9|
4,7,2.6|
5,0,4.7|
5,1,4.1|
5,2,9|
5,3,0.19|
5,4,1|
5,5,9|
5,6,1.4|
5,7,9.4|
6,0,7.6|
6,1,2.8|
6,2,1.5|
6,3,2.7|
6,4,3|
6,5,7.3|
6,6,9.3|
6,7,8.1|
7,0,6.1|
7,1,9.5|
7,2,8.4|
7,3,1.2|
7,4,7.2|
7,5,0.0099|
7,6,9.1|
7,7,3.4|
];
constraint_x8_y8=[
0,0,9.6|
0,1,8.4|
0,2,9.9|
0,3,8.6|
0,4,4.2|
0,5,1.5|
0,6,7.5|
0,7,4.3|
1,0,5.5|
1,1,3.7|
1,2,3.5|
1,3,9.7|
1,4,7.1|
1,5,8.8|
1,6,2.2|
1,7,8.7|
2,0,5.7|
2,1,3.9|
2,2,8.2|
2,3,1.5|
2,4,5.9|
2,5,4.9|
2,6,2.7|
2,7,8.6|
3,0,6.4|
3,1,9.1|
3,2,7.2|
3,3,5.6|
3,4,4.3|
3,5,4.5|
3,6,2.1|
3,7,5.6|
4,0,4.7|
4,1,8.3|
4,2,2.2|
4,3,4|
4,4,3.1|
4,5,1.3|
4,6,6.5|
4,7,8.6|
5,0,6|
5,1,6.4|
5,2,9|
5,3,0.92|
5,4,6.6|
5,5,7.3|
5,6,5.5|
5,7,9.7|
6,0,0.26|
6,1,4|
6,2,3.4|
6,3,4.6|
6,4,3.2|
6,5,1.2|
6,6,5.8|
6,7,5|
7,0,5.3|
7,1,8.4|
7,2,3.9|
7,3,5|
7,4,9.7|
7,5,7.8|
7,6,8|
7,7,0.068|
];
initial_distribution_y1=[0.0041,0.12,0.12,0.097,0.21,0.2,0.11,0.14];
initial_distribution_y2=[0.14,0.22,0.0072,0.16,0.13,0.12,0.086,0.14];
initial_distribution_y3=[0.15,0.15,0.088,0.063,0.09,0.087,0.23,0.15];
initial_distribution_y4=[0.0093,0.32,0.069,0.05,0.12,0.22,0.14,0.075];
initial_distribution_y5=[0.13,0.18,0.064,0.19,0.066,0.0065,0.15,0.21];
initial_distribution_y6=[0.096,0.094,0.28,0.13,0.28,0.027,0.034,0.057];
initial_distribution_y7=[0.073,0.31,0.073,0.063,0.059,0.24,0.18,0.011];
initial_distribution_y8=[0.11,0.045,0.069,0.14,0.19,0.25,0.011,0.19];
transition_y1=[
0.016,0.075,0.19,0.17,0.053,0.23,0.16,0.11|
0.099,0.16,0.19,0.022,0.079,0.12,0.18,0.15|
0.087,0.16,0.073,0.12,0.099,0.15,0.14,0.17|
0.19,0.25,0.16,0.042,0.061,0.2,0.029,0.075|
0.037,0.21,0.15,0.029,0.21,0.025,0.19,0.15|
0.18,0.2,0.14,0.078,0.11,0.15,0.08,0.062|
0.026,0.31,0.16,0.24,0.077,0.051,0.067,0.075|
0.11,0.1,0.12,0.14,0.18,0.052,0.066,0.24|
];
transition_y2=[
0.1,0.17,0.029,0.34,0.075,0.043,0.051,0.19|
0.16,0.059,0.025,0.18,0.18,0.053,0.11,0.22|
0.021,0.26,0.041,0.055,0.014,0.29,0.036,0.29|
0.16,0.051,0.046,0.2,0.17,0.034,0.16,0.18|
0.068,0.23,0.17,0.018,0.049,0.14,0.23,0.1|
0.19,0.19,0.087,0.21,0.0095,0.14,0.12,0.055|
0.075,0.22,0.059,0.013,0.22,0.076,0.22,0.13|
0.16,0.1,0.075,0.057,0.11,0.2,0.11,0.19|
];
transition_y3=[
0.11,0.011,0.18,0.13,0.15,0.15,0.21,0.069|
0.12,0.16,0.29,0.074,0.01,0.1,0.036,0.21|
0.046,0.1,0.11,0.11,0.2,0.14,0.064,0.23|
0.037,0.23,0.024,0.083,0.17,0.038,0.2,0.22|
0.034,0.11,0.17,0.13,0.076,0.15,0.15,0.18|
0.021,0.028,0.06,0.25,0.046,0.27,0.17,0.17|
0.26,0.11,0.19,0.091,0.021,0.17,0.062,0.089|
0.026,0.076,0.24,0.052,0.12,0.2,0.17,0.12|
];
transition_y4=[
0.067,0.25,0.2,0.15,0.058,0.16,0.061,0.052|
0.077,0.17,0.19,0.078,0.11,0.19,0.059,0.13|
0.14,0.13,0.076,0.12,0.13,0.2,0.02,0.18|
0.16,0.15,0.16,0.16,0.062,0.036,0.11,0.18|
0.071,0.085,0.17,0.15,0.078,0.21,0.087,0.15|
0.12,0.084,0.16,0.25,0.057,0.12,0.13,0.083|
0.27,0.25,0.14,0.017,0.047,0.035,0.14,0.095|
0.18,0.09,0.03,0.17,0.2,0.078,0.073,0.18|
];
transition_y5=[
0.22,0.24,0.029,0.14,0.0078,0.12,0.12,0.13|
0.14,0.069,0.093,0.18,0.19,0.053,0.18,0.099|
0.23,0.0064,0.13,0.036,0.22,0.18,0.012,0.19|
0.21,0.1,0.11,0.032,0.054,0.1,0.23,0.15|
0.089,0.18,0.19,0.15,0.057,0.068,0.16,0.12|
0.11,0.031,0.13,0.098,0.14,0.073,0.21,0.2|
0.0085,0.17,0.15,0.18,0.17,0.021,0.14,0.16|
0.0045,0.23,0.0039,0.18,0.037,0.072,0.21,0.27|
];
transition_y6=[
0.13,0.094,0.042,0.052,0.2,0.25,0.13,0.1|
0.17,0.14,0.061,0.13,0.21,0.13,0.012,0.13|
0.15,0.1,0.066,0.15,0.051,0.07,0.26,0.15|
0.13,0.045,0.098,0.076,0.15,0.16,0.16,0.19|
0.22,0.21,0.16,0.031,0.17,0.068,0.095,0.053|
0.27,0.27,0.029,0.14,0.11,0.014,0.027,0.14|
0.2,0.0029,0.14,0.062,0.097,0.077,0.19,0.23|
0.021,0.018,0.093,0.2,0.19,0.092,0.19,0.2|
];
transition_y7=[
0.066,0.064,0.094,0.052,0.24,0.19,0.17,0.12|
0.022,0.15,0.19,0.18,0.064,0.047,0.18,0.18|
0.13,0.12,0.23,0.22,0.17,0.044,0.033,0.057|
0.008,0.14,0.095,0.16,0.17,0.014,0.18,0.23|
0.085,0.17,0.17,0.12,0.1,0.26,0.015,0.078|
0.2,0.18,0.096,0.049,0.073,0.19,0.042,0.17|
0.2,0.045,0.15,0.075,0.11,0.22,0.072,0.13|
0.21,0.0057,0.048,0.15,0.17,0.22,0.058,0.14|
];
transition_y8=[
0.22,0.024,0.2,0.037,0.24,0.0027,0.044,0.23|
0.13,0.16,0.079,0.066,0.19,0.16,0.038,0.17|
0.024,0.062,0.24,0.24,0.014,0.1,0.25,0.061|
0.098,0.056,0.14,0.1,0.19,0.15,0.2,0.071|
0.024,0.38,0.089,0.0071,0.056,0.13,0.23,0.079|
0.17,0.012,0.26,0.15,0.26,0.057,0.095,0.0036|
0.28,0.065,0.042,0.083,0.25,0.13,0.092,0.061|
0.18,0.19,0.15,0.12,0.022,0.18,0.048,0.12|
];
